Ninner = 15;
J = 9;
tmin = [47, 44, 45, 30, 49, 43, 33, 40, 33, 45, 40, 50, 48, 30, 33];
tmax = [73, 89, 87, 95, 100, 78, 78, 62, 92, 92, 66, 90, 63, 85, 66];
e = array2d(1..Tinner,0..Ninner,
    [|5, 0, 5, 7, 9, 8, 10, 9, 3, 10, 9, 6, 8, 9, 3, 8,
     |10, 5, 0, 5, 3, 3, 6, 10, 5, 5, 8, 10, 10, 9, 5, 10,
     |10, 7, 5, 0, 6, 5, 8, 3, 7, 5, 3, 8, 10, 6, 3, 9,
     |5, 9, 3, 6, 0, 6, 4, 9, 4, 5, 3, 3, 6, 9, 3, 5,
     |4, 8, 3, 5, 6, 0, 3, 6, 4, 10, 5, 3, 5, 5, 9, 8,
     |3, 10, 6, 8, 4, 3, 0, 6, 10, 9, 5, 8, 9, 6, 7, 4,
     |5, 9, 10, 3, 9, 6, 6, 0, 6, 3, 6, 5, 8, 10, 8, 9,
     |8, 3, 5, 7, 4, 4, 10, 6, 0, 5, 4, 10, 4, 5, 3, 7,
     |3, 10, 5, 5, 5, 10, 9, 3, 5, 0, 7, 7, 8, 5, 4, 7,
     |5, 9, 8, 3, 3, 5, 5, 6, 4, 7, 0, 3, 10, 7, 7, 9,
     |4, 6, 10, 8, 3, 3, 8, 5, 10, 7, 3, 0, 8, 7, 8, 9,
     |6, 8, 10, 10, 6, 5, 9, 8, 4, 8, 10, 8, 0, 5, 3, 10,
     |5, 9, 9, 6, 9, 5, 6, 10, 5, 5, 7, 7, 5, 0, 3, 10,
     |6, 3, 5, 3, 3, 9, 7, 8, 3, 4, 7, 8, 3, 3, 0, 7,
     |3, 8, 10, 9, 5, 8, 4, 9, 7, 7, 9, 9, 10, 10, 7, 0,
     |9, 5, 7, 4, 6, 9, 6, 10, 8, 8, 9, 8, 3, 6, 5, 8|]);
f = array1d(0..Ninner,
     [14, 20, 23, 21, 29, 23, 27, 26, 14, 29, 13, 29, 27, 12, 15, 11]);
Multiplier = 1;
Hoists = 1;
Capacity = 1;